WARNING: for repeatability, setting FPU to use double precision
============================[ Problem Statistics ]=============================
|                                                                             |
|  Number of variables:           100                                         |
|  Number of clauses:             449                                         |
|  Parse time:                   0.00 s                                       |
|  Eliminated clauses:           0.00 Mb                                      |
|  Simplification time:          0.00 s                                       |
|                                                                             |
============================[ Search Statistics ]==============================
| Conflicts |          ORIGINAL         |          LEARNT          | Progress |
|           |    Vars  Clauses Literals |    Limit  Clauses Lit/Cl |          |
===============================================================================
|       100 |      99      448     1347 |      164      100      8 |  0.010 % |
|       250 |      99      448     1347 |      180      165      6 |  0.010 % |
===============================================================================
restarts              : 3
conflicts             : 320            (130293 /sec)
decisions             : 404            (0.00 % random) (164495 /sec)
propagations          : 6896           (2807818 /sec)
conflict literals     : 2056           (18.64 % deleted)
Memory used           : 13.00 MB
CPU time              : 0.002456 s

SATISFIABLE
